benchmarks/bfuzz0/14300278851834024668282373747163412458.smt2
(set-logic QF_FP)
(declare-const x0 (_ FloatingPoint 8 24))
(declare-const x1 (_ FloatingPoint 8 24))
(declare-const x2 (_ FloatingPoint 8 24))
(declare-const x3 (_ FloatingPoint 8 24))
(declare-const x4 (_ FloatingPoint 8 24))
(declare-const x5 (_ FloatingPoint 8 24))
(declare-const x6 (_ FloatingPoint 8 24))
(declare-const x7 (_ FloatingPoint 8 24))
(declare-const x8 (_ FloatingPoint 8 24))
(declare-const x9 (_ FloatingPoint 8 24))
(assert (fp.gt (fp.div RNE x2 x3) (fp.mul RNE x0 x5)))
(assert (fp.gt (fp.div RNE x5 x9) (fp.div RNE x2 x5)))
(assert (fp.leq (fp.div RNE x0 x1) (fp.div RNE x5 x0)))
(assert (fp.geq (fp.mul RNE x0 x7) (fp.add RNE x2 x6)))
(assert (fp.lt (fp.div RNE x5 x1) (fp.neg x1)))
(assert (fp.lt (fp.mul RNE x0 x1) (fp.mul RNE x4 x0)))
(check-sat)
