db/data/14300278851834024668282373747163412458.z3.out
sat
-------------------
33.983152184
